p edge 90 420
e 1 2
e 1 3
e 1 4
e 1 5
e 1 6
e 1 7
e 1 8
e 1 9
e 1 10
e 2 3
e 2 4
e 2 5
e 2 6
e 2 7
e 2 8
e 2 9
e 2 10
e 2 11
e 2 12
e 2 13
e 3 4
e 3 5
e 3 6
e 3 7
e 3 8
e 3 9
e 3 10
e 4 5
e 4 6
e 4 7
e 4 8
e 4 9
e 4 10
e 4 14
e 4 12
e 4 15
e 4 16
e 5 6
e 5 7
e 5 8
e 5 9
e 5 10
e 5 17
e 6 7
e 6 8
e 6 9
e 6 10
e 6 18
e 7 8
e 7 9
e 7 10
e 8 9
e 8 19
e 8 20
e 9 10
e 10 21
e 11 22
e 11 23
e 11 24
e 11 19
e 11 25
e 11 26
e 11 14
e 11 29
e 11 27
e 12 32
e 12 33
e 12 34
e 12 35
e 12 36
e 12 20
e 12 37
e 12 38
e 12 39
e 13 53
e 13 54
e 13 55
e 13 16
e 13 56
e 13 57
e 13 58
e 13 21
e 13 59
e 14 22
e 14 23
e 14 24
e 14 19
e 14 25
e 14 26
e 14 29
e 14 27
e 15 43
e 15 17
e 15 18
e 15 44
e 15 45
e 15 46
e 15 47
e 15 50
e 15 48
e 16 53
e 16 54
e 16 55
e 16 56
e 16 57
e 16 21
e 16 59
e 16 60
e 17 43
e 17 18
e 17 44
e 17 45
e 17 46
e 17 47
e 17 50
e 17 48
e 17 51
e 18 43
e 18 44
e 18 45
e 18 46
e 18 47
e 18 50
e 18 48
e 18 52
e 19 22
e 19 23
e 19 24
e 19 29
e 19 25
e 19 26
e 19 27
e 19 30
e 20 32
e 20 33
e 20 34
e 20 35
e 20 36
e 20 37
e 20 38
e 20 39
e 21 53
e 21 54
e 21 55
e 21 56
e 21 57
e 21 58
e 21 59
e 22 23
e 22 24
e 22 25
e 22 26
e 22 27
e 22 28
e 23 24
e 23 29
e 23 25
e 23 26
e 23 27
e 24 29
e 24 25
e 24 26
e 24 27
e 25 29
e 25 26
e 25 27
e 26 29
e 26 27
e 27 29
e 28 62
e 28 30
e 28 63
e 28 64
e 28 65
e 28 66
e 28 67
e 28 68
e 28 31
e 29 31
e 30 62
e 30 63
e 30 64
e 30 66
e 30 67
e 30 68
e 30 31
e 31 62
e 31 63
e 31 64
e 31 65
e 31 66
e 31 67
e 31 68
e 32 33
e 32 34
e 32 35
e 32 36
e 32 37
e 32 38
e 32 39
e 33 34
e 33 35
e 33 36
e 33 37
e 33 38
e 33 39
e 34 35
e 34 36
e 34 37
e 34 38
e 34 39
e 34 40
e 35 36
e 35 37
e 35 39
e 36 37
e 36 38
e 36 39
e 37 38
e 37 39
e 37 41
e 37 42
e 38 39
e 40 69
e 40 70
e 40 41
e 40 72
e 40 73
e 40 74
e 40 75
e 40 42
e 41 69
e 41 70
e 41 71
e 41 72
e 41 73
e 41 74
e 41 75
e 41 42
e 42 69
e 42 70
e 42 71
e 42 72
e 42 73
e 42 74
e 42 75
e 43 44
e 43 45
e 43 46
e 43 47
e 43 48
e 43 49
e 44 45
e 44 46
e 44 47
e 44 50
e 44 48
e 45 46
e 45 47
e 45 50
e 45 48
e 46 47
e 46 50
e 46 48
e 47 50
e 47 48
e 48 50
e 49 76
e 49 77
e 49 78
e 49 79
e 49 51
e 49 52
e 49 80
e 49 81
e 49 82
e 51 76
e 51 77
e 51 78
e 51 79
e 51 52
e 51 80
e 51 81
e 51 82
e 52 76
e 52 77
e 52 78
e 52 79
e 52 80
e 52 81
e 52 82
e 53 54
e 53 55
e 53 56
e 53 57
e 53 58
e 53 59
e 54 55
e 54 56
e 54 57
e 54 58
e 54 59
e 55 56
e 55 57
e 55 58
e 55 59
e 56 57
e 56 58
e 56 59
e 56 61
e 57 58
e 57 59
e 57 60
e 58 59
e 60 83
e 60 84
e 60 85
e 60 86
e 60 87
e 60 88
e 60 89
e 60 90
e 60 61
e 61 83
e 61 84
e 61 85
e 61 86
e 61 88
e 61 89
e 61 90
e 62 63
e 62 64
e 62 65
e 62 66
e 62 67
e 62 68
e 63 64
e 63 65
e 63 66
e 63 67
e 63 68
e 64 65
e 64 66
e 64 67
e 64 68
e 65 66
e 65 67
e 65 68
e 66 67
e 66 68
e 67 68
e 69 70
e 69 71
e 69 72
e 69 73
e 69 74
e 69 75
e 70 71
e 70 72
e 70 73
e 70 74
e 70 75
e 71 72
e 71 73
e 71 74
e 71 75
e 72 73
e 72 74
e 72 75
e 73 74
e 73 75
e 74 75
e 76 77
e 76 78
e 76 79
e 76 80
e 76 81
e 76 82
e 77 78
e 77 79
e 77 80
e 77 81
e 77 82
e 78 79
e 78 80
e 78 81
e 79 80
e 79 81
e 79 82
e 80 81
e 80 82
e 81 82
e 83 84
e 83 85
e 83 86
e 83 87
e 83 88
e 83 89
e 83 90
e 84 85
e 84 86
e 84 87
e 84 88
e 84 89
e 84 90
e 85 86
e 85 87
e 85 88
e 85 89
e 85 90
e 86 87
e 86 88
e 86 89
e 86 90
e 87 88
e 87 89
e 87 90
e 88 89
e 88 90
e 89 90
l 16
t 65 69
